words_hard_train/3171.qaiger
aag 127 15 0 1 112
2
4
8
12
34
36
60
62
100
102
132
134
162
168
250
255
6 2 4
10 6 8
14 12 8
16 13 9
18 15 17
20 3 5
22 7 21
24 18 22
26 25 12
28 23 8
30 26 29
32 11 31
38 34 36
40 35 37
42 39 41
44 43 25
46 42 24
48 45 47
50 49 35
52 48 34
54 51 53
56 33 54
58 57 53
64 60 62
66 61 63
68 65 67
70 69 47
72 68 46
74 71 73
76 75 61
78 74 60
80 77 79
82 58 81
84 59 80
86 83 85
88 32 55
90 89 57
92 91 8
94 92 4
96 87 94
98 85 79
104 100 102
106 101 103
108 105 107
110 109 73
112 108 72
114 111 113
116 115 101
118 114 100
120 117 119
122 98 121
124 99 120
126 123 125
128 96 127
130 125 119
136 132 134
138 133 135
140 137 139
142 141 113
144 140 112
146 143 145
148 147 133
150 146 132
152 149 151
154 130 153
156 131 152
158 155 157
160 128 159
164 161 163
166 157 151
170 168 162
172 169 163
174 171 173
176 175 145
178 174 144
180 177 179
182 181 169
184 180 168
186 183 185
188 166 187
190 167 186
192 189 191
194 165 193
196 185 179
198 196 191
200 190 178
202 199 201
204 195 203
206 159 134
208 21 8
210 208 36
212 209 37
214 213 91
216 211 215
218 216 95
220 87 62
222 218 221
224 86 63
226 223 225
228 126 103
230 226 229
232 127 102
234 231 233
236 234 129
238 158 135
240 237 239
242 207 241
244 192 163
246 243 245
248 204 247
252 202 250
254 249 253
i0 1 x1[0]
i1 2 y1[0]
i2 2 y1[1]
i3 1 x1[1]
i4 1 x1[2]
i5 2 y1[2]
i6 1 x1[3]
i7 2 y1[3]
i8 1 x1[4]
i9 2 y1[4]
i10 1 x1[5]
i11 2 y1[5]
i12 2 y1[6]
i13 1 x1[6]
i14 2 y1[7]
o0 bv[0]
c
simplified
  >
    subtract
      1 x1
      xor
        invert
          2 y1
        1 x1
    2 y1
