words_hard_train/3171.qaiger.qdimacs
p cnf 127 337
a 1 66 6 17 50 84 30 0
e 2 3 4 5 7 8 9 10 11 12 13 14 15 16 18 19 20 21 22 23 24 25 26 27 28 29 31 32 33 34 35 36 37 38 39 40 41 42 43 44 45 46 47 48 49 51 52 53 54 55 56 57 58 59 60 61 62 63 64 65 67 68 69 70 71 72 73 74 75 76 77 78 79 80 81 82 83 85 86 87 88 89 90 91 92 93 94 95 96 97 98 99 100 101 102 103 104 105 106 107 108 109 110 111 112 113 114 115 116 117 118 119 120 121 122 123 124 125 126 127 0
-1 -2 3 0
1 -3 0
2 -3 0
-3 -4 5 0
3 -5 0
4 -5 0
-6 -4 7 0
6 -7 0
4 -7 0
6 4 8 0
-6 -8 0
-4 -8 0
7 8 9 0
-7 -9 0
-8 -9 0
1 2 10 0
-1 -10 0
-2 -10 0
3 10 11 0
-3 -11 0
-10 -11 0
-9 -11 12 0
9 -12 0
11 -12 0
12 -6 13 0
-12 -13 0
6 -13 0
11 -4 14 0
-11 -14 0
4 -14 0
-13 14 15 0
13 -15 0
-14 -15 0
5 15 16 0
-5 -16 0
-15 -16 0
-17 -18 19 0
17 -19 0
18 -19 0
17 18 20 0
-17 -20 0
-18 -20 0
19 20 21 0
-19 -21 0
-20 -21 0
21 12 22 0
-21 -22 0
-12 -22 0
-21 -12 23 0
21 -23 0
12 -23 0
22 23 24 0
-22 -24 0
-23 -24 0
24 17 25 0
-24 -25 0
-17 -25 0
-24 -17 26 0
24 -26 0
17 -26 0
25 26 27 0
-25 -27 0
-26 -27 0
16 -27 28 0
-16 -28 0
27 -28 0
28 26 29 0
-28 -29 0
-26 -29 0
-30 -31 32 0
30 -32 0
31 -32 0
30 31 33 0
-30 -33 0
-31 -33 0
32 33 34 0
-32 -34 0
-33 -34 0
34 23 35 0
-34 -35 0
-23 -35 0
-34 -23 36 0
34 -36 0
23 -36 0
35 36 37 0
-35 -37 0
-36 -37 0
37 30 38 0
-37 -38 0
-30 -38 0
-37 -30 39 0
37 -39 0
30 -39 0
38 39 40 0
-38 -40 0
-39 -40 0
-29 40 41 0
29 -41 0
-40 -41 0
29 -40 42 0
-29 -42 0
40 -42 0
41 42 43 0
-41 -43 0
-42 -43 0
-16 27 44 0
16 -44 0
-27 -44 0
44 28 45 0
-44 -45 0
-28 -45 0
45 -4 46 0
-45 -46 0
4 -46 0
-46 -2 47 0
46 -47 0
2 -47 0
43 -47 48 0
-43 -48 0
47 -48 0
42 39 49 0
-42 -49 0
-39 -49 0
-50 -51 52 0
50 -52 0
51 -52 0
50 51 53 0
-50 -53 0
-51 -53 0
52 53 54 0
-52 -54 0
-53 -54 0
54 36 55 0
-54 -55 0
-36 -55 0
-54 -36 56 0
54 -56 0
36 -56 0
55 56 57 0
-55 -57 0
-56 -57 0
57 50 58 0
-57 -58 0
-50 -58 0
-57 -50 59 0
57 -59 0
50 -59 0
58 59 60 0
-58 -60 0
-59 -60 0
-49 60 61 0
49 -61 0
-60 -61 0
49 -60 62 0
-49 -62 0
60 -62 0
61 62 63 0
-61 -63 0
-62 -63 0
-48 63 64 0
48 -64 0
-63 -64 0
62 59 65 0
-62 -65 0
-59 -65 0
-66 -67 68 0
66 -68 0
67 -68 0
66 67 69 0
-66 -69 0
-67 -69 0
68 69 70 0
-68 -70 0
-69 -70 0
70 56 71 0
-70 -71 0
-56 -71 0
-70 -56 72 0
70 -72 0
56 -72 0
71 72 73 0
-71 -73 0
-72 -73 0
73 66 74 0
-73 -74 0
-66 -74 0
-73 -66 75 0
73 -75 0
66 -75 0
74 75 76 0
-74 -76 0
-75 -76 0
-65 76 77 0
65 -77 0
-76 -77 0
65 -76 78 0
-65 -78 0
76 -78 0
77 78 79 0
-77 -79 0
-78 -79 0
-64 79 80 0
64 -80 0
-79 -80 0
80 81 82 0
-80 -82 0
-81 -82 0
78 75 83 0
-78 -83 0
-75 -83 0
-84 -81 85 0
84 -85 0
81 -85 0
84 81 86 0
-84 -86 0
-81 -86 0
85 86 87 0
-85 -87 0
-86 -87 0
87 72 88 0
-87 -88 0
-72 -88 0
-87 -72 89 0
87 -89 0
72 -89 0
88 89 90 0
-88 -90 0
-89 -90 0
90 84 91 0
-90 -91 0
-84 -91 0
-90 -84 92 0
90 -92 0
84 -92 0
91 92 93 0
-91 -93 0
-92 -93 0
-83 93 94 0
83 -94 0
-93 -94 0
83 -93 95 0
-83 -95 0
93 -95 0
94 95 96 0
-94 -96 0
-95 -96 0
82 96 97 0
-82 -97 0
-96 -97 0
92 89 98 0
-92 -98 0
-89 -98 0
-98 95 99 0
98 -99 0
-95 -99 0
-95 -89 100 0
95 -100 0
89 -100 0
99 100 101 0
-99 -101 0
-100 -101 0
97 101 102 0
-97 -102 0
-101 -102 0
79 -67 103 0
-79 -103 0
67 -103 0
10 -4 104 0
-10 -104 0
4 -104 0
-104 -18 105 0
104 -105 0
18 -105 0
104 18 106 0
-104 -106 0
-18 -106 0
106 45 107 0
-106 -107 0
-45 -107 0
105 107 108 0
-105 -108 0
-107 -108 0
-108 47 109 0
108 -109 0
-47 -109 0
43 -31 110 0
-43 -110 0
31 -110 0
-109 110 111 0
109 -111 0
-110 -111 0
-43 31 112 0
43 -112 0
-31 -112 0
111 112 113 0
-111 -113 0
-112 -113 0
-63 51 114 0
63 -114 0
-51 -114 0
-113 114 115 0
113 -115 0
-114 -115 0
63 -51 116 0
-63 -116 0
51 -116 0
115 116 117 0
-115 -117 0
-116 -117 0
-117 64 118 0
117 -118 0
-64 -118 0
-79 67 119 0
79 -119 0
-67 -119 0
118 119 120 0
-118 -120 0
-119 -120 0
103 120 121 0
-103 -121 0
-120 -121 0
-96 81 122 0
96 -122 0
-81 -122 0
121 122 123 0
-121 -123 0
-122 -123 0
-102 123 124 0
102 -124 0
-123 -124 0
-101 -125 126 0
101 -126 0
125 -126 0
124 126 127 0
-124 -127 0
-126 -127 0
-127 0
